30
5
993438
0
0
50 38 39 55 34
1
0
63 46 43 40 52
2
0
44 71 31 45 36
3
0
57 49 47 49 48
4
0
53 53 39 45 31
5
0
41 44 48 68 41
6
0
57 79 53 62 42
7
0
53 47 52 46 44
8
0
46 83 45 68 67
9
0
51 43 49 54 55
10
0
38 52 49 51 71
11
0
43 57 45 52 61
12
0
50 58 47 46 61
13
0
34 68 29 41 44
14
0
43 43 38 43 43
15
0
69 41 62 47 36
16
0
35 44 60 37 61
17
0
47 51 62 57 46
18
0
55 56 57 44 54
19
0
56 68 60 49 47
20
0
47 64 51 54 46
21
0
32 47 66 60 47
22
0
38 43 39 43 59
23
0
57 44 47 62 44
24
0
55 45 53 53 45
25
0
53 44 59 80 37
26
0
56 40 50 42 48
27
0
58 33 55 50 45
28
0
40 67 54 48 58
29
0
35 40 33 41 52
